\ LP format - for model browsing. Use MPS format to capture full model detail.
Minimize
  x_A + x_B
Subject To
 R0: 25 x_A + 45 x_B >= 1400
 R1: 14 x_A + 25 x_B >= 1000
 R2: 60 x_A + 65 x_B <= 3500
Bounds
End
